p edge 32 132
e 1 4
e 1 14
e 1 18
e 1 22
e 1 29
e 1 30
e 1 31
e 1 32
e 2 5
e 2 6
e 2 7
e 2 9
e 2 12
e 2 13
e 2 21
e 2 23
e 2 25
e 2 26
e 2 32
e 3 9
e 3 10
e 3 11
e 3 15
e 3 17
e 3 19
e 3 23
e 3 28
e 4 14
e 4 22
e 4 31
e 5 7
e 5 12
e 5 25
e 6 7
e 6 12
e 6 13
e 6 26
e 6 31
e 7 12
e 7 13
e 7 21
e 7 25
e 7 26
e 7 32
e 8 16
e 8 18
e 8 22
e 8 24
e 8 27
e 8 29
e 8 30
e 9 11
e 9 13
e 9 15
e 9 16
e 9 21
e 9 23
e 9 25
e 9 26
e 9 28
e 9 32
e 10 11
e 10 16
e 10 28
e 11 16
e 11 21
e 11 23
e 11 28
e 12 13
e 12 25
e 13 14
e 13 21
e 13 23
e 13 25
e 13 26
e 13 32
e 14 18
e 14 21
e 14 22
e 14 26
e 14 29
e 14 31
e 14 32
e 15 17
e 15 20
e 15 23
e 15 25
e 15 28
e 16 18
e 16 21
e 16 22
e 16 24
e 16 28
e 16 29
e 16 32
e 17 19
e 17 20
e 17 23
e 17 28
e 18 21
e 18 22
e 18 26
e 18 27
e 18 29
e 18 30
e 18 31
e 18 32
e 21 22
e 21 23
e 21 25
e 21 26
e 21 28
e 21 32
e 22 27
e 22 29
e 22 30
e 22 31
e 22 32
e 23 25
e 23 26
e 23 28
e 24 27
e 25 26
e 25 28
e 25 32
e 26 28
e 26 32
e 27 29
e 27 30
e 29 30
e 29 32
e 31 32
